c description: Random 4-CNF over 22 variables and 220 clauses
c generator: CNFgen (0.9.0)
c copyright: (C) 2012-2020 Massimo Lauria <massimo.lauria@uniroma1.it>
c url: https://massimolauria.net/cnfgen
c command line: cnfgen randkcnf 4 22 220
c
p cnf 22 220
10 12 -15 16 0
5 -6 -9 15 0
8 -9 -13 19 0
2 -4 -6 -12 0
1 -2 9 14 0
-2 -4 -5 17 0
8 13 -15 -18 0
12 13 -15 -22 0
-4 -11 -16 18 0
2 5 -14 -17 0
7 -9 13 18 0
2 -9 17 20 0
-4 -5 13 -20 0
5 -11 -13 -18 0
2 4 8 -11 0
-4 14 17 -21 0
1 -15 19 22 0
6 13 -16 18 0
-1 12 -17 -21 0
-8 -9 15 16 0
-4 12 16 -20 0
9 11 -12 -14 0
1 -5 -7 15 0
-2 -7 -18 -22 0
12 -16 18 19 0
-5 8 -10 -17 0
3 -4 -5 -21 0
11 12 16 19 0
1 9 13 15 0
9 -15 21 22 0
4 11 16 18 0
-8 16 -17 22 0
1 11 -15 -21 0
3 -7 -19 -22 0
-3 -7 15 19 0
-1 3 5 -17 0
7 14 21 22 0
11 -16 18 -20 0
-1 3 -14 -15 0
5 7 8 9 0
10 -12 14 16 0
-3 4 8 13 0
-2 -9 -18 20 0
-10 11 -14 -22 0
2 -14 15 -18 0
2 -4 13 -22 0
4 -11 -12 -17 0
7 -8 -16 21 0
-3 5 20 22 0
-6 -9 -20 22 0
5 -6 -7 -18 0
-4 15 16 22 0
11 13 -18 -20 0
-10 -13 -16 -21 0
-1 5 -7 -19 0
2 -9 12 17 0
-8 11 -17 -20 0
-9 16 -18 19 0
-15 -16 18 -20 0
-1 -2 8 -13 0
-1 9 11 14 0
-2 -6 11 17 0
5 -6 -9 -14 0
-12 13 16 22 0
-3 -4 -7 -13 0
-8 -9 -12 13 0
-1 9 -11 17 0
7 8 15 -20 0
-5 -7 -15 16 0
-1 -4 6 -13 0
-4 -10 -15 -16 0
4 -13 14 18 0
-5 -6 -10 19 0
3 6 -14 -20 0
9 14 -17 -19 0
2 -8 -16 21 0
-13 -14 18 20 0
11 13 -20 -21 0
-6 8 -12 -22 0
-6 -7 -12 -18 0
4 7 -17 21 0
13 -19 -20 -21 0
3 13 -16 -19 0
9 -17 -19 22 0
-4 14 20 21 0
6 -19 21 -22 0
-1 3 -7 -11 0
5 10 -18 -20 0
1 -13 19 -20 0
-3 -8 12 -21 0
-7 10 -11 20 0
7 11 -18 21 0
-18 -20 -21 22 0
9 14 -18 20 0
-2 8 10 -19 0
4 -8 13 22 0
-1 -4 16 22 0
2 -6 12 -13 0
7 -11 12 -18 0
-6 9 -10 21 0
2 -7 -8 19 0
12 -14 17 -20 0
2 -3 -9 -12 0
-6 -13 14 -17 0
-7 -11 12 -13 0
4 -6 11 18 0
3 -6 14 15 0
-8 -12 19 -21 0
-4 -5 -7 -13 0
-7 9 -13 16 0
5 9 16 17 0
1 -3 -5 20 0
-6 -11 -15 -22 0
6 16 -18 -21 0
1 -2 14 -20 0
-5 14 -15 -19 0
8 9 -11 -12 0
-4 16 17 -22 0
-3 13 14 -17 0
2 -8 17 20 0
14 17 21 22 0
-3 -5 -14 17 0
-4 -15 -19 -22 0
13 14 19 -20 0
-8 10 -13 21 0
-3 6 20 22 0
4 14 15 -16 0
-2 -10 12 17 0
-4 -11 19 -22 0
-1 13 -17 -21 0
1 9 10 -15 0
8 -13 14 -15 0
-1 -6 13 -15 0
4 -7 -17 20 0
3 -13 16 22 0
-6 11 12 -14 0
-10 -11 12 18 0
2 8 13 -22 0
8 -17 -19 -21 0
-1 -2 -10 16 0
-14 18 -20 -21 0
-4 -13 -15 -19 0
-4 8 15 16 0
5 -7 15 -22 0
1 -2 9 11 0
-2 -3 21 22 0
-2 -5 -9 -11 0
1 -3 10 -21 0
2 4 -16 -19 0
3 4 12 -21 0
2 -13 -18 -19 0
3 10 -14 19 0
-3 5 -6 -15 0
10 12 -14 -22 0
-11 -16 -17 -20 0
-1 6 13 18 0
1 2 -13 21 0
2 -4 7 -13 0
-6 10 14 16 0
2 -3 4 -10 0
1 -4 -13 -18 0
4 -7 14 -16 0
13 14 17 -22 0
-1 -8 -12 -14 0
-3 7 -12 -20 0
4 6 14 -18 0
2 -5 -8 -15 0
3 -7 -13 17 0
-9 19 -21 -22 0
1 -8 -19 -22 0
4 -11 14 18 0
2 -7 8 15 0
-3 -6 -16 -21 0
1 -4 12 18 0
5 -7 -10 14 0
2 6 13 19 0
5 10 -21 22 0
-4 12 -21 -22 0
-6 -12 13 16 0
5 13 -16 18 0
6 -7 14 21 0
-8 12 -19 21 0
1 -3 -5 -12 0
2 -9 13 -14 0
2 3 12 -22 0
-4 -8 9 -13 0
2 8 -11 -22 0
-1 -19 20 -22 0
2 -3 11 -16 0
-1 8 -20 22 0
7 -15 -18 22 0
-2 4 12 21 0
-3 -6 -9 14 0
-1 -2 -12 15 0
-2 -3 -6 -15 0
10 -12 17 -22 0
-2 -10 15 -19 0
-10 11 14 21 0
3 -10 -12 -16 0
-5 16 -21 22 0
3 -15 20 21 0
3 -7 -9 -21 0
1 -6 -9 -22 0
2 -4 17 -19 0
8 10 21 -22 0
-2 -5 -13 18 0
4 7 15 -20 0
-5 11 -13 21 0
-1 -5 -17 22 0
3 -4 -9 -11 0
-4 7 15 19 0
2 -5 -6 -18 0
1 -9 -14 -18 0
3 -7 -13 -20 0
4 -5 -7 17 0
-2 11 14 17 0
-3 4 -11 -16 0
7 -10 11 12 0
-3 -9 11 -14 0
7 -15 -16 -19 0
